NAME : B-n35-k5.557325.tour
COMMENT : Length = 557325
COMMENT : Found by LKH [Keld Helsgaun] Sun Dec 17 19:07:14 2017
TYPE : TOUR
DIMENSION : 39
TOUR_SECTION
1
30
18
13
17
11
39
22
26
9
32
7
34
4
36
21
8
10
24
2
14
33
3
20
12
38
19
27
35
28
37
16
23
31
6
15
25
5
29
-1
EOF
